unsat
(forall ((A (_ BitVec 1))
         (B (_ BitVec 1))
         (C (_ BitVec 1))
         (D (_ BitVec 16))
         (E (_ BitVec 512))
         (F (_ BitVec 1))
         (G (_ BitVec 1))
         (H (_ BitVec 1))
         (I (_ BitVec 279))
         (J (_ BitVec 1))
         (K (_ BitVec 1))
         (L (_ BitVec 1))
         (M (_ BitVec 1))
         (N (_ BitVec 1))
         (O (_ BitVec 1))
         (P (_ BitVec 1))
         (Q (_ BitVec 1))
         (R (_ BitVec 2)))
  (! (let ((a!1 (and (or (not (= C #b1)) (= D #x0000)) (= B #b1))))
       (= (INV!slice!1 A B C D E F G H I J K L M N O P Q R) a!1))
     :weight 0))
